164
1000
41
596
194
599
331
30
995
209
15
716
342
98
322
304
829
293
91
476
909
367
145
746
35
787
4
875
259
591
92
758
631
151
297
633
710
393
404
125
93
924
479
102
836
164
650
198
147
297
51
386
286
658
212
33
767
233
598
652
681
69
204
422
527
110
521
638
931
184
402
346
138
350
592
189
243
218
165
583
62
1
642
73
365
355
215
56
795
11
202
959
401
136
669
248
686
358
380
41
81
255
286
938
80
109
231
666
256
123
205
7
73
36
99
175
611
125
855
744
228
786
211
877
184
76
574
174
75
67
970
767
44
614
559
111
214
30
607
62
290
153
524
243
225
369
186
327
443
583
237
91
511
697
5
473
84
806
632
750
417
916
247
36
171
72
